(set-logic QF_S)
(declare-fun var0 () String)
(declare-fun var1 () String)
(declare-fun var2 () String)
(declare-fun var3 () String)
(declare-fun var4 () String)
(declare-fun var5 () String)
(declare-fun var6 () String)
(declare-fun var7 () String)
(declare-fun var8 () String)
(declare-fun var9 () String)
(declare-fun var10 () String)
(declare-fun var11 () String)
(declare-fun var12 () String)
(declare-fun var13 () String)
(declare-fun var14 () String)
(declare-fun var15 () String)
(declare-fun var16 () String)
(declare-fun var17 () String)
(declare-fun var18 () String)
(declare-fun var19 () String)
(declare-fun var20 () String)
(declare-fun var21 () String)
(declare-fun var22 () String)
(declare-fun var23 () String)
(declare-fun var24 () String)
(declare-fun var25 () String)
(declare-fun var26 () String)
(declare-fun var27 () String)
(declare-fun var28 () String)
(declare-fun var29 () String)
(declare-fun var30 () String)
(declare-fun var31 () String)
(declare-fun var32 () String)
(declare-fun var33 () String)
(declare-fun var34 () String)
(declare-fun var35 () String)
(declare-fun var36 () String)
(declare-fun var37 () String)
(declare-fun var38 () String)
(declare-fun var39 () String)
(declare-fun var40 () String)
(declare-fun var41 () String)
(declare-fun var42 () String)
(declare-fun var43 () String)
(declare-fun var44 () String)
(declare-fun var45 () String)
(declare-fun var46 () String)
(declare-fun var47 () String)
(declare-fun var48 () String)
(declare-fun var49 () String)
(declare-fun var50 () String)
(declare-fun var51 () String)
(declare-fun var52 () String)
(declare-fun var53 () String)
(declare-fun var54 () String)
(declare-fun var55 () String)
(declare-fun var56 () String)
(declare-fun var57 () String)
(declare-fun var58 () String)
(declare-fun var59 () String)
(declare-fun var60 () String)
(assert (= var0 (Concat var1 var2)))
(assert (= var2 (Concat var3 var4)))
(assert (= var4 (Concat var5 var6)))
(assert (= var6 (Concat var7 var8)))
(assert (= var8 (Concat var9 var10)))
(assert (= var10 (Concat var11 var12)))
(assert (= var12 (Concat var13 var14)))
(assert (= var14 (Concat var15 var16)))
(assert (= var16 (Concat var17 var18)))
(assert (= var18 (Concat var19 var20)))
(assert (= var20 (Concat var21 var22)))
(assert (= var22 (Concat var23 var24)))
(assert (= var24 (Concat var25 var26)))
(assert (= var26 (Concat var27 var28)))
(assert (= var28 (Concat var29 var30)))
(assert (= var30 (Concat var31 var32)))
(assert (= var32 (Concat var33 var34)))
(assert (= var34 (Concat var35 var36)))
(assert (= var36 (Concat var37 var38)))
(assert (= var38 (Concat var39 var40)))
(assert (= var40 (Concat var41 var42)))
(assert (= var42 (Concat var43 var44)))
(assert (= var44 (Concat var45 var46)))
(assert (= var46 (Concat var47 var48)))
(assert (= var48 (Concat var49 var50)))
(assert (= var50 (Concat var51 var52)))
(assert (= var52 (Concat var53 var54)))
(assert (= var54 (Concat var55 var56)))
(assert (= var56 (Concat var57 var58)))
(assert (= var58 (Concat var59 var60)))
(assert (= var0 "solution"))
(assert (= "%" (CharAt var34 320)))
(assert (= "$" (CharAt var3 119)))
(assert (= "k" (CharAt var11 787)))
(assert (= "^" (CharAt var29 254)))
(assert (= "s" (CharAt var28 631)))
(assert (= "\\" (CharAt var19 439)))
(assert (= "f" (CharAt var5 752)))
(assert (= "7" (CharAt var43 11)))
(assert (= "4" (CharAt var3 270)))
(assert (= "I" (CharAt var31 996)))
(assert (= "z" (CharAt var56 717)))
(assert (= "9" (CharAt var30 745)))
(assert (= "V" (CharAt var48 547)))
(assert (= "*" (CharAt var47 617)))
(assert (= "|" (CharAt var49 586)))
(assert (= "8" (CharAt var9 258)))
(assert (= "=" (CharAt var12 450)))
(assert (= "H" (CharAt var29 80)))
(assert (= "M" (CharAt var29 38)))
(assert (= "@" (CharAt var55 232)))
(assert (= "O" (CharAt var60 382)))
(assert (= "<" (CharAt var41 937)))
(assert (= "_" (CharAt var55 43)))
(assert (= "6" (CharAt var50 429)))
(assert (= "B" (CharAt var5 67)))
(assert (= "o" (CharAt var26 486)))
(assert (= "P" (CharAt var55 249)))
(assert (= "H" (CharAt var17 479)))
(assert (= "G" (CharAt var36 484)))
(assert (= "I" (CharAt var37 471)))
(assert (= "H" (CharAt var19 547)))
(assert (= "G" (CharAt var50 156)))
(assert (= "f" (CharAt var11 185)))
(assert (= "w" (CharAt var12 540)))
(assert (= "u" (CharAt var9 814)))
(assert (= "h" (CharAt var36 401)))
(assert (= "}" (CharAt var13 495)))
(assert (= "l" (CharAt var1 415)))
(assert (= "v" (CharAt var48 122)))
(assert (= "|" (CharAt var12 761)))
(assert (= "K" (CharAt var27 810)))
(assert (= "l" (CharAt var17 210)))
(assert (= "W" (CharAt var20 991)))
(assert (= "," (CharAt var60 692)))
(assert (= "l" (CharAt var19 766)))
(assert (= "^" (CharAt var1 806)))
(assert (= "s" (CharAt var34 8)))
(assert (= "@" (CharAt var43 240)))
(assert (= "o" (CharAt var39 501)))
(assert (= "N" (CharAt var2 183)))
(assert (= "f" (CharAt var48 511)))
(assert (= "," (CharAt var53 325)))
(assert (= "B" (CharAt var47 501)))
(assert (= "%" (CharAt var16 512)))
(assert (= "r" (CharAt var47 517)))
(assert (= "b" (CharAt var25 720)))
(assert (= "k" (CharAt var12 148)))
(assert (= "F" (CharAt var5 852)))
(assert (= "Y" (CharAt var2 263)))
(assert (= "s" (CharAt var44 704)))
(assert (= "d" (CharAt var22 149)))
(assert (= "R" (CharAt var50 838)))
(assert (= "A" (CharAt var58 761)))
(assert (= "O" (CharAt var15 22)))
(assert (= "g" (CharAt var14 105)))
(assert (= "^" (CharAt var60 126)))
(assert (= "T" (CharAt var52 757)))
(assert (= "5" (CharAt var8 786)))
(assert (= "@" (CharAt var57 94)))
(assert (= "f" (CharAt var51 42)))
(assert (= "`" (CharAt var59 770)))
(assert (= "<" (CharAt var56 175)))
(assert (= "a" (CharAt var6 102)))
(assert (= "*" (CharAt var20 285)))
(assert (= "x" (CharAt var19 105)))
(assert (= "m" (CharAt var38 358)))
(assert (= "]" (CharAt var7 526)))
(assert (= "@" (CharAt var39 183)))
(assert (= "." (CharAt var3 172)))
(assert (= "H" (CharAt var36 425)))
(assert (= "7" (CharAt var20 552)))
(assert (= "S" (CharAt var6 468)))
(assert (= "N" (CharAt var17 224)))
(assert (= "6" (CharAt var12 201)))
(assert (= "R" (CharAt var37 698)))
(assert (= "v" (CharAt var10 361)))
(assert (= "H" (CharAt var5 113)))
(assert (= ">" (CharAt var20 562)))
(assert (= "z" (CharAt var9 629)))
(assert (= "[" (CharAt var8 620)))
(assert (= "x" (CharAt var12 12)))
(assert (= "[" (CharAt var46 714)))
(assert (= ")" (CharAt var10 227)))
(assert (= "8" (CharAt var48 569)))
(assert (= "!" (CharAt var31 578)))
(assert (= "p" (CharAt var17 162)))
(assert (= "&" (CharAt var31 422)))
(assert (= ">" (CharAt var7 411)))
(assert (= "l" (CharAt var54 66)))
(assert (= "G" (CharAt var1 915)))
(assert (= "s" (CharAt var15 211)))
(assert (= "O" (CharAt var2 728)))
(assert (= "b" (CharAt var25 448)))
(assert (= "]" (CharAt var59 66)))
(assert (= "e" (CharAt var17 500)))
(assert (= "W" (CharAt var1 374)))
(assert (= "q" (CharAt var52 627)))
(assert (= "7" (CharAt var21 235)))
(assert (= "u" (CharAt var28 426)))
(assert (= "u" (CharAt var41 806)))
(assert (= "C" (CharAt var36 206)))
(assert (= "l" (CharAt var6 181)))
(assert (= "u" (CharAt var9 539)))
(assert (= "I" (CharAt var45 489)))
(assert (= "E" (CharAt var46 978)))
(assert (= "/" (CharAt var0 59)))
(assert (= "p" (CharAt var25 193)))
(assert (= "!" (CharAt var8 509)))
(assert (= "F" (CharAt var19 175)))
(assert (= "v" (CharAt var7 893)))
(assert (= "/" (CharAt var31 876)))
(assert (= "o" (CharAt var28 441)))
(assert (= "N" (CharAt var51 0)))
(assert (= "v" (CharAt var51 68)))
(assert (= "l" (CharAt var35 733)))
(assert (= "w" (CharAt var2 780)))
(assert (= "Y" (CharAt var51 922)))
(assert (= "U" (CharAt var13 273)))
(assert (= "v" (CharAt var37 876)))
(assert (= "X" (CharAt var43 249)))
(assert (= "w" (CharAt var24 598)))
(assert (= "r" (CharAt var59 138)))
(assert (= "&" (CharAt var53 12)))
(assert (= "9" (CharAt var42 735)))
(assert (= "}" (CharAt var22 437)))
(assert (= "S" (CharAt var47 422)))
(assert (= "Q" (CharAt var49 367)))
(assert (= "J" (CharAt var15 609)))
(assert (= "c" (CharAt var49 496)))
(assert (= "L" (CharAt var34 570)))
(assert (= "X" (CharAt var38 450)))
(assert (= "B" (CharAt var7 160)))
(assert (= "C" (CharAt var23 378)))
(assert (= "k" (CharAt var33 24)))
(assert (= "z" (CharAt var1 97)))
(assert (= "A" (CharAt var28 28)))
(assert (= "N" (CharAt var29 810)))
(assert (= "^" (CharAt var56 527)))
(assert (= "|" (CharAt var27 732)))
(assert (= "t" (CharAt var27 671)))
(assert (= "=" (CharAt var22 217)))
(assert (= "T" (CharAt var10 702)))
(assert (= "a" (CharAt var1 521)))
(assert (= "+" (CharAt var15 639)))
(assert (= "F" (CharAt var55 219)))
(assert (= "[" (CharAt var5 529)))
(assert (= "M" (CharAt var9 55)))
(assert (= "." (CharAt var33 180)))
(assert (= ">" (CharAt var22 786)))
(assert (= "8" (CharAt var4 286)))
(assert (= "." (CharAt var60 561)))
(assert (= "9" (CharAt var0 117)))
(assert (= "\"" (CharAt var41 378)))
(assert (= "$" (CharAt var13 516)))
(assert (= "B" (CharAt var40 732)))
(assert (= "/" (CharAt var29 358)))
(assert (= "0" (CharAt var1 836)))
(assert (= "g" (CharAt var8 548)))
(assert (= "@" (CharAt var39 420)))
(assert (= "c" (CharAt var26 533)))
(assert (= "w" (CharAt var55 404)))
(assert (= "3" (CharAt var44 777)))
(assert (= "Y" (CharAt var18 1)))
(assert (= "Z" (CharAt var25 875)))
(assert (= "|" (CharAt var9 108)))
(assert (= "^" (CharAt var12 946)))
(assert (= "x" (CharAt var52 940)))
(assert (= ":" (CharAt var15 909)))
(assert (= "7" (CharAt var59 109)))
(assert (= "k" (CharAt var15 79)))
(assert (= "D" (CharAt var17 875)))
(assert (= "j" (CharAt var7 76)))
(assert (= "N" (CharAt var16 518)))
(assert (= "x" (CharAt var25 88)))
(assert (= "$" (CharAt var3 58)))
(assert (= "A" (CharAt var41 827)))
(assert (= "D" (CharAt var28 357)))
(assert (= "#" (CharAt var24 844)))
(assert (= "^" (CharAt var6 125)))
(assert (= ";" (CharAt var36 212)))
(assert (= "^" (CharAt var23 233)))
(assert (= "O" (CharAt var9 611)))
(assert (= "_" (CharAt var31 64)))
(assert (= "{" (CharAt var24 49)))
(assert (= "F" (CharAt var59 71)))
(assert (= "9" (CharAt var15 104)))
(assert (= "{" (CharAt var40 608)))
(assert (= "?" (CharAt var20 280)))
(assert (= "1" (CharAt var23 327)))
(assert (= "m" (CharAt var53 779)))
(assert (= "L" (CharAt var40 988)))
(assert (= "x" (CharAt var36 790)))
(assert (= "u" (CharAt var55 411)))
(assert (= "I" (CharAt var20 912)))
(assert (= "@" (CharAt var31 464)))
(assert (= "~" (CharAt var21 457)))
(assert (= "o" (CharAt var3 867)))
(assert (= "H" (CharAt var51 117)))
(assert (= "D" (CharAt var58 608)))
(assert (= "z" (CharAt var44 703)))
(assert (= "K" (CharAt var51 318)))
(assert (= "z" (CharAt var14 341)))
(assert (= "b" (CharAt var45 755)))
(assert (= "T" (CharAt var13 839)))
(assert (= "'" (CharAt var44 9)))
(assert (= "V" (CharAt var33 223)))
(assert (= "v" (CharAt var58 773)))
(assert (= "7" (CharAt var33 45)))
(assert (= "c" (CharAt var29 592)))
(assert (= "#" (CharAt var60 751)))
(assert (= "R" (CharAt var7 222)))
(assert (= "g" (CharAt var27 319)))
(assert (= "I" (CharAt var24 806)))
(assert (= "\"" (CharAt var54 820)))
(assert (= "}" (CharAt var21 510)))
(assert (= "2" (CharAt var32 382)))
(assert (= ")" (CharAt var17 380)))
(assert (= "z" (CharAt var29 86)))
(assert (= "a" (CharAt var7 123)))
(assert (= "^" (CharAt var17 391)))
(assert (= "o" (CharAt var3 850)))
(assert (= "^" (CharAt var57 539)))
(assert (= "P" (CharAt var58 701)))
(assert (= "." (CharAt var55 779)))
(assert (= "\\" (CharAt var35 502)))
(assert (= "b" (CharAt var11 62)))
(assert (= "J" (CharAt var51 461)))
(assert (= "2" (CharAt var12 480)))
(assert (= "k" (CharAt var49 754)))
(assert (= "T" (CharAt var7 130)))
(assert (= "b" (CharAt var54 860)))
(assert (= "r" (CharAt var46 179)))
(assert (= "0" (CharAt var43 467)))
(assert (= "o" (CharAt var8 537)))
(assert (= "w" (CharAt var23 809)))
(assert (= "," (CharAt var42 326)))
(assert (= "I" (CharAt var60 515)))
(assert (= "j" (CharAt var21 472)))
(assert (= "x" (CharAt var35 22)))
(assert (= ")" (CharAt var1 472)))
(assert (= "R" (CharAt var55 114)))
(assert (= "V" (CharAt var19 623)))
(assert (= "-" (CharAt var54 106)))
(assert (= "7" (CharAt var55 137)))
(assert (= "g" (CharAt var52 74)))
(assert (= "Y" (CharAt var38 471)))
(assert (= "s" (CharAt var49 893)))
(assert (= "W" (CharAt var7 104)))
(assert (= "W" (CharAt var30 722)))
(assert (= "]" (CharAt var43 571)))
(assert (= ";" (CharAt var31 380)))
(assert (= "B" (CharAt var29 563)))
(assert (= "j" (CharAt var19 389)))
(assert (= "X" (CharAt var3 73)))
(assert (= "d" (CharAt var24 279)))
(assert (= "e" (CharAt var50 186)))
(assert (= "t" (CharAt var32 892)))
(assert (= "=" (CharAt var8 690)))
(assert (= "\\" (CharAt var48 598)))
(assert (= "^" (CharAt var20 230)))
(assert (= "o" (CharAt var14 381)))
(assert (= "(" (CharAt var44 480)))
(assert (= "1" (CharAt var56 209)))
(assert (= "n" (CharAt var12 572)))
(assert (= "/" (CharAt var10 632)))
(assert (= "_" (CharAt var58 603)))
(assert (= "j" (CharAt var59 459)))
(assert (= "4" (CharAt var21 745)))
(assert (= "(" (CharAt var37 451)))
(assert (= "h" (CharAt var0 779)))
(assert (= "," (CharAt var23 907)))
(assert (= "N" (CharAt var50 232)))
(assert (= "{" (CharAt var41 15)))
(assert (= "9" (CharAt var32 688)))
(assert (= "q" (CharAt var11 970)))
(assert (= "E" (CharAt var51 732)))
(assert (= "y" (CharAt var41 687)))
(assert (= ")" (CharAt var22 196)))
(assert (= "7" (CharAt var11 785)))
(assert (= "." (CharAt var52 695)))
(assert (= "-" (CharAt var58 604)))
(assert (= "v" (CharAt var30 435)))
(assert (= "u" (CharAt var30 744)))
(assert (= "#" (CharAt var31 283)))
(assert (= "d" (CharAt var59 670)))
(assert (= "c" (CharAt var37 437)))
(assert (= "h" (CharAt var18 162)))
(assert (= "Z" (CharAt var11 919)))
(assert (= "X" (CharAt var18 166)))
(assert (= "D" (CharAt var16 426)))
(assert (= "y" (CharAt var8 810)))
(assert (= "d" (CharAt var31 731)))
(assert (= "c" (CharAt var51 923)))
(assert (= ")" (CharAt var5 577)))
(assert (= "A" (CharAt var38 440)))
(assert (= "R" (CharAt var38 611)))
(assert (= "?" (CharAt var46 57)))
(assert (= "^" (CharAt var27 52)))
(assert (= "!" (CharAt var44 270)))
(assert (= "*" (CharAt var1 326)))
(assert (= "u" (CharAt var8 814)))
(assert (= "1" (CharAt var32 829)))
(assert (= "S" (CharAt var38 68)))
(assert (= "z" (CharAt var1 36)))
(assert (= "j" (CharAt var31 142)))
(assert (= "<" (CharAt var58 533)))
(assert (= "s" (CharAt var35 328)))
(assert (= "\"" (CharAt var49 723)))
(assert (= "d" (CharAt var55 798)))
(assert (= "K" (CharAt var33 339)))
(assert (= "=" (CharAt var51 755)))
(assert (= "<" (CharAt var10 109)))
(assert (= "K" (CharAt var24 579)))
(assert (= "l" (CharAt var17 454)))
(assert (= "f" (CharAt var34 353)))
(assert (= "<" (CharAt var36 965)))
(assert (= "l" (CharAt var39 24)))
(assert (= "*" (CharAt var13 453)))
(assert (= "&" (CharAt var53 516)))
(assert (= "`" (CharAt var30 365)))
(assert (= "A" (CharAt var44 108)))
(assert (= "-" (CharAt var0 473)))
(assert (= "S" (CharAt var8 185)))
(assert (= "(" (CharAt var1 914)))
(assert (= "G" (CharAt var20 834)))
(assert (= "7" (CharAt var9 162)))
(assert (= "9" (CharAt var52 341)))
(assert (= "?" (CharAt var38 919)))
(assert (= "\"" (CharAt var22 288)))
(assert (= "a" (CharAt var8 872)))
(assert (= "}" (CharAt var29 507)))
(assert (= "c" (CharAt var47 341)))
(assert (= "x" (CharAt var33 335)))
(assert (= "H" (CharAt var6 293)))
(assert (= "H" (CharAt var33 911)))
(assert (= "%" (CharAt var56 701)))
(assert (= "d" (CharAt var11 990)))
(assert (= "&" (CharAt var25 630)))
(assert (= "%" (CharAt var8 260)))
(assert (= "a" (CharAt var26 336)))
(assert (= "D" (CharAt var4 85)))
(assert (= "V" (CharAt var23 990)))
(assert (= "]" (CharAt var37 972)))
(assert (= "J" (CharAt var55 654)))
(assert (= "-" (CharAt var21 216)))
(assert (= "r" (CharAt var36 623)))
(assert (= "8" (CharAt var58 222)))
(assert (= "'" (CharAt var44 784)))
(assert (= "_" (CharAt var5 873)))
(assert (= "R" (CharAt var49 798)))
(assert (= "?" (CharAt var38 449)))
(assert (= "r" (CharAt var39 545)))
(assert (= "`" (CharAt var51 277)))
(assert (= "D" (CharAt var19 54)))
(assert (= "I" (CharAt var54 291)))
(assert (= "D" (CharAt var16 882)))
(assert (= "~" (CharAt var46 641)))
(assert (= "u" (CharAt var51 407)))
(assert (= "3" (CharAt var10 141)))
(assert (= "~" (CharAt var24 277)))
(assert (= "V" (CharAt var52 386)))
(assert (= "A" (CharAt var9 685)))
(assert (= "f" (CharAt var27 556)))
(assert (= "," (CharAt var16 883)))
(assert (= "9" (CharAt var26 179)))
(assert (= "-" (CharAt var43 556)))
(assert (= "v" (CharAt var30 551)))
(assert (= "w" (CharAt var1 980)))
(assert (= "B" (CharAt var25 532)))
(assert (= "d" (CharAt var50 853)))
(assert (= "|" (CharAt var7 432)))
(assert (= "G" (CharAt var0 772)))
(assert (= "-" (CharAt var46 71)))
(assert (= "i" (CharAt var10 873)))
(assert (= "%" (CharAt var28 876)))
(assert (= "K" (CharAt var12 684)))
(assert (= "d" (CharAt var6 956)))
(assert (= "%" (CharAt var17 678)))
(assert (= "L" (CharAt var46 132)))
(assert (= "{" (CharAt var23 555)))
(assert (= "D" (CharAt var40 860)))
(assert (= "b" (CharAt var6 297)))
(assert (= "^" (CharAt var40 644)))
(assert (= "!" (CharAt var0 344)))
(assert (= "F" (CharAt var31 420)))
(assert (= "d" (CharAt var15 199)))
(assert (= "@" (CharAt var47 838)))
(assert (= "8" (CharAt var2 342)))
(assert (= "J" (CharAt var7 928)))
(assert (= "y" (CharAt var42 547)))
(assert (= "k" (CharAt var26 975)))
(assert (= "}" (CharAt var44 487)))
(assert (= "4" (CharAt var45 532)))
(assert (= "u" (CharAt var12 838)))
(assert (= "9" (CharAt var8 613)))
(assert (= "C" (CharAt var12 885)))
(assert (= "[" (CharAt var43 60)))
(assert (= "C" (CharAt var25 708)))
(assert (= "R" (CharAt var43 299)))
(assert (= "T" (CharAt var46 29)))
(assert (= "u" (CharAt var20 800)))
(assert (= "r" (CharAt var36 946)))
(assert (= "j" (CharAt var7 702)))
(assert (= "1" (CharAt var55 677)))
(assert (= "X" (CharAt var41 902)))
(assert (= "K" (CharAt var5 294)))
(assert (= "*" (CharAt var19 347)))
(assert (= "u" (CharAt var20 260)))
(assert (= "p" (CharAt var26 137)))
(assert (= "h" (CharAt var18 945)))
(assert (= "B" (CharAt var10 866)))
(assert (= "D" (CharAt var3 104)))
(assert (= "e" (CharAt var30 237)))
(assert (= "s" (CharAt var2 575)))
(assert (= "e" (CharAt var0 489)))
(assert (= "(" (CharAt var60 873)))
(assert (= "k" (CharAt var22 488)))
(assert (= "m" (CharAt var9 768)))
(assert (= "O" (CharAt var45 481)))
(assert (= "2" (CharAt var52 645)))
(assert (= "f" (CharAt var53 307)))
(assert (= "v" (CharAt var11 120)))
(assert (= "z" (CharAt var48 485)))
(assert (= "w" (CharAt var36 585)))
(assert (= "V" (CharAt var18 907)))
(assert (= "t" (CharAt var13 6)))
(assert (= "w" (CharAt var21 566)))
(assert (= "'" (CharAt var42 473)))
(assert (= "4" (CharAt var18 63)))
(assert (= "A" (CharAt var56 381)))
(assert (= "U" (CharAt var34 452)))
(assert (= "?" (CharAt var55 70)))
(assert (= "(" (CharAt var11 987)))
(assert (= "M" (CharAt var0 145)))
(assert (= "D" (CharAt var14 234)))
(assert (= "g" (CharAt var11 759)))
(assert (= "b" (CharAt var9 351)))
(assert (= "1" (CharAt var59 308)))
(assert (= "`" (CharAt var28 230)))
(assert (= "@" (CharAt var25 15)))
(assert (= "U" (CharAt var23 190)))
(assert (= "%" (CharAt var53 83)))
(assert (= "\"" (CharAt var14 295)))
(assert (= "E" (CharAt var3 519)))
(assert (= "@" (CharAt var60 67)))
(assert (= "Z" (CharAt var39 200)))
(assert (= "Q" (CharAt var41 76)))
(assert (= "t" (CharAt var54 391)))
(assert (= "o" (CharAt var9 502)))
(assert (= "A" (CharAt var40 338)))
(assert (= "[" (CharAt var57 124)))
(assert (= "Y" (CharAt var10 816)))
(assert (= "y" (CharAt var44 949)))
(assert (= "U" (CharAt var52 488)))
(assert (= "," (CharAt var6 936)))
(assert (= "k" (CharAt var42 535)))
(assert (= "_" (CharAt var18 962)))
(assert (= "4" (CharAt var10 66)))
(assert (= "S" (CharAt var56 4)))
(assert (= "|" (CharAt var34 376)))
(assert (= "c" (CharAt var27 904)))
(assert (= "V" (CharAt var10 529)))
(assert (= "%" (CharAt var20 868)))
(assert (= "v" (CharAt var14 584)))
(assert (= "i" (CharAt var55 669)))
(assert (= "s" (CharAt var52 558)))
(assert (= "I" (CharAt var55 603)))
(assert (= "0" (CharAt var2 536)))
(assert (= "5" (CharAt var24 531)))
(assert (= "3" (CharAt var59 245)))
(assert (= "g" (CharAt var53 343)))
(assert (= "k" (CharAt var15 712)))
(assert (= "(" (CharAt var33 614)))
(assert (= "Z" (CharAt var39 99)))
(assert (= "a" (CharAt var4 335)))
(assert (= "U" (CharAt var18 527)))
(assert (= "X" (CharAt var56 435)))
(assert (= "x" (CharAt var50 958)))
(assert (= "M" (CharAt var45 107)))
(assert (= "f" (CharAt var26 979)))
(assert (= "h" (CharAt var7 728)))
(assert (= "&" (CharAt var21 17)))
(assert (= "b" (CharAt var17 463)))
(assert (= "[" (CharAt var5 944)))
(assert (= "T" (CharAt var53 114)))
(assert (= "4" (CharAt var59 772)))
(assert (= "*" (CharAt var25 848)))
(assert (= "0" (CharAt var10 48)))
(assert (= "_" (CharAt var43 751)))
(assert (= "$" (CharAt var15 515)))
(assert (= "W" (CharAt var50 859)))
(assert (= "j" (CharAt var24 94)))
(assert (= "@" (CharAt var43 170)))
(assert (= "a" (CharAt var16 942)))
(assert (= "X" (CharAt var60 630)))
(assert (= "n" (CharAt var45 575)))
(assert (= "q" (CharAt var4 104)))
(assert (= "F" (CharAt var51 514)))
(assert (= "y" (CharAt var57 611)))
(assert (= "a" (CharAt var1 833)))
(assert (= "7" (CharAt var13 812)))
(assert (= "?" (CharAt var48 236)))
(assert (= "a" (CharAt var44 782)))
(assert (= "k" (CharAt var46 980)))
(assert (= "d" (CharAt var58 669)))
(assert (= "x" (CharAt var54 930)))
(assert (= "I" (CharAt var2 972)))
(assert (= "=" (CharAt var55 230)))
(assert (= "x" (CharAt var60 768)))
(assert (= "n" (CharAt var35 44)))
(assert (= "'" (CharAt var4 223)))
(assert (= "4" (CharAt var3 28)))
(assert (= "(" (CharAt var40 863)))
(assert (= "Y" (CharAt var11 635)))
(assert (= "w" (CharAt var40 73)))
(assert (= "{" (CharAt var15 400)))
(assert (= "p" (CharAt var35 501)))
(assert (= "g" (CharAt var18 707)))
(assert (= "8" (CharAt var32 501)))
(assert (= "A" (CharAt var49 925)))
(assert (= ")" (CharAt var57 465)))
(assert (= "@" (CharAt var24 833)))
(assert (= "[" (CharAt var51 171)))
(assert (= "f" (CharAt var7 832)))
(assert (= "g" (CharAt var23 832)))
(assert (= "." (CharAt var39 432)))
(assert (= "," (CharAt var28 511)))
(assert (= "%" (CharAt var55 909)))
(assert (= "i" (CharAt var41 994)))
(assert (= "=" (CharAt var60 851)))
(assert (= "a" (CharAt var31 264)))
(assert (= "v" (CharAt var55 926)))
(assert (= "c" (CharAt var34 628)))
(assert (= "H" (CharAt var60 786)))
(assert (= "S" (CharAt var22 213)))
(assert (= "v" (CharAt var30 328)))
(assert (= "4" (CharAt var27 646)))
(assert (= "x" (CharAt var46 267)))
(assert (= "A" (CharAt var17 480)))
(assert (= "]" (CharAt var22 350)))
(assert (= "^" (CharAt var41 586)))
(assert (= "I" (CharAt var45 660)))
(assert (= "l" (CharAt var48 278)))
(assert (= "V" (CharAt var54 593)))
(assert (= "@" (CharAt var34 856)))
(assert (= "3" (CharAt var22 828)))
(assert (= "-" (CharAt var44 111)))
(assert (= "\"" (CharAt var46 396)))
(assert (= "j" (CharAt var27 380)))
(assert (= "G" (CharAt var13 537)))
(assert (= "?" (CharAt var49 580)))
(assert (= "X" (CharAt var26 378)))
(assert (= "|" (CharAt var50 289)))
(assert (= ";" (CharAt var4 913)))
(assert (= "]" (CharAt var51 750)))
(assert (= "2" (CharAt var52 581)))
(assert (= "f" (CharAt var58 599)))
(assert (= "F" (CharAt var44 974)))
(assert (= "-" (CharAt var25 938)))
(assert (= "'" (CharAt var11 449)))
(assert (= "[" (CharAt var50 964)))
(assert (= "Z" (CharAt var3 329)))
(assert (= "8" (CharAt var55 746)))
(assert (= "1" (CharAt var4 954)))
(assert (= "J" (CharAt var22 565)))
(assert (= "J" (CharAt var9 962)))
(assert (= "+" (CharAt var51 392)))
(assert (= "c" (CharAt var32 419)))
(assert (= "7" (CharAt var18 668)))
(assert (= "G" (CharAt var30 228)))
(assert (= "`" (CharAt var49 932)))
(assert (= "!" (CharAt var40 809)))
(assert (= "p" (CharAt var23 493)))
(assert (= "J" (CharAt var35 594)))
(assert (= "g" (CharAt var11 246)))
(assert (= "m" (CharAt var9 546)))
(assert (= "6" (CharAt var56 671)))
(assert (= "d" (CharAt var3 302)))
(assert (= "b" (CharAt var45 425)))
(assert (= "{" (CharAt var39 668)))
(assert (= "@" (CharAt var52 719)))
(assert (= "'" (CharAt var51 954)))
(assert (= "M" (CharAt var48 46)))
(assert (= "V" (CharAt var18 739)))
(assert (= "W" (CharAt var2 28)))
(assert (= "o" (CharAt var3 516)))
(assert (= "8" (CharAt var6 342)))
(assert (= "/" (CharAt var7 335)))
(assert (= "9" (CharAt var53 812)))
(assert (= "k" (CharAt var51 925)))
(assert (= "#" (CharAt var42 593)))
(assert (= "!" (CharAt var30 907)))
(assert (= "S" (CharAt var32 591)))
(assert (= "u" (CharAt var52 364)))
(assert (= "`" (CharAt var23 758)))
(assert (= "U" (CharAt var56 628)))
(assert (= "j" (CharAt var0 53)))
(assert (= "y" (CharAt var18 436)))
(assert (= "V" (CharAt var36 956)))
(assert (= "," (CharAt var34 823)))
(assert (= ")" (CharAt var43 306)))
(assert (= "{" (CharAt var39 817)))
(assert (= "6" (CharAt var4 501)))
(assert (= "." (CharAt var59 160)))
(assert (= "q" (CharAt var7 785)))
(assert (= "c" (CharAt var2 139)))
(assert (= "F" (CharAt var59 300)))
(assert (= "J" (CharAt var20 816)))
(assert (= "q" (CharAt var36 375)))
(assert (= "0" (CharAt var31 768)))
(assert (= "l" (CharAt var44 291)))
(assert (= "@" (CharAt var34 512)))
(assert (= "F" (CharAt var3 634)))
(assert (= "'" (CharAt var10 384)))
(assert (= "?" (CharAt var53 544)))
(assert (= "A" (CharAt var30 206)))
(assert (= "." (CharAt var29 548)))
(assert (= "," (CharAt var33 342)))
(assert (= "H" (CharAt var5 448)))
(assert (= "/" (CharAt var42 702)))
(assert (= "h" (CharAt var2 544)))
(assert (= "`" (CharAt var36 9)))
(assert (= "-" (CharAt var47 154)))
(assert (= "+" (CharAt var52 480)))
(assert (= "-" (CharAt var58 789)))
(assert (= "L" (CharAt var13 602)))
(assert (= "4" (CharAt var51 202)))
(assert (= "/" (CharAt var29 322)))
(assert (= "k" (CharAt var9 1)))
(assert (= "r" (CharAt var43 832)))
(assert (= "w" (CharAt var45 99)))
(check-sat)